(set-info :smt-lib-version 2.6)
(set-logic QF_UFLRA)
(set-info :source |
MathSat group

|)
(set-info :category "random")
(set-info :status sat)
(declare-fun f0_1 (Real) Real)
(declare-fun f0_2 (Real Real) Real)
(declare-fun f0_3 (Real Real Real) Real)
(declare-fun f0_4 (Real Real Real Real) Real)
(declare-fun f1_1 (Real) Real)
(declare-fun f1_2 (Real Real) Real)
(declare-fun f1_3 (Real Real Real) Real)
(declare-fun f1_4 (Real Real Real Real) Real)
(declare-fun x0 () Real)
(declare-fun x1 () Real)
(declare-fun x2 () Real)
(declare-fun x3 () Real)
(declare-fun x4 () Real)
(declare-fun x5 () Real)
(declare-fun x6 () Real)
(declare-fun x7 () Real)
(declare-fun x8 () Real)
(declare-fun x9 () Real)
(declare-fun x10 () Real)
(declare-fun x11 () Real)
(declare-fun x12 () Real)
(declare-fun x13 () Real)
(declare-fun x14 () Real)
(declare-fun x15 () Real)
(declare-fun x16 () Real)
(declare-fun x17 () Real)
(declare-fun x18 () Real)
(declare-fun x19 () Real)
(declare-fun x20 () Real)
(declare-fun x21 () Real)
(declare-fun x22 () Real)
(declare-fun x23 () Real)
(declare-fun x24 () Real)
(declare-fun x25 () Real)
(declare-fun x26 () Real)
(declare-fun x27 () Real)
(declare-fun x28 () Real)
(declare-fun x29 () Real)
(declare-fun x30 () Real)
(declare-fun x31 () Real)
(declare-fun x32 () Real)
(declare-fun x33 () Real)
(declare-fun x34 () Real)
(declare-fun x35 () Real)
(declare-fun x36 () Real)
(declare-fun x37 () Real)
(declare-fun x38 () Real)
(declare-fun x39 () Real)
(declare-fun P0 () Bool)
(declare-fun P1 () Bool)
(declare-fun P2 () Bool)
(declare-fun P3 () Bool)
(declare-fun P4 () Bool)
(declare-fun P5 () Bool)
(declare-fun P6 () Bool)
(declare-fun P7 () Bool)
(declare-fun P8 () Bool)
(declare-fun P9 () Bool)
(declare-fun P10 () Bool)
(declare-fun P11 () Bool)
(declare-fun P12 () Bool)
(declare-fun P13 () Bool)
(declare-fun P14 () Bool)
(declare-fun P15 () Bool)
(declare-fun P16 () Bool)
(declare-fun P17 () Bool)
(declare-fun P18 () Bool)
(declare-fun P19 () Bool)
(declare-fun P20 () Bool)
(declare-fun P21 () Bool)
(declare-fun P22 () Bool)
(declare-fun P23 () Bool)
(declare-fun P24 () Bool)
(declare-fun P25 () Bool)
(declare-fun P26 () Bool)
(declare-fun P27 () Bool)
(declare-fun P28 () Bool)
(declare-fun P29 () Bool)
(declare-fun P30 () Bool)
(declare-fun P31 () Bool)
(declare-fun P32 () Bool)
(declare-fun P33 () Bool)
(declare-fun P34 () Bool)
(declare-fun P35 () Bool)
(declare-fun P36 () Bool)
(declare-fun P37 () Bool)
(declare-fun P38 () Bool)
(declare-fun P39 () Bool)
(assert (let ((?v_27 (f0_1 x23)) (?v_70 (f1_2 x20 x30)) (?v_14 (f1_2 x24 x23)) (?v_51 (f1_2 x0 x26)) (?v_86 (f0_2 x18 x23)) (?v_8 (f1_2 x37 x2)) (?v_4 (f0_1 x29)) (?v_160 (* 29 x25)) (?v_10 (* 23 x2)) (?v_307 (f1_2 x4 x15))) (let ((?v_38 (+ (- (* 12 x12) (* 24 x23)) ?v_10)) (?v_304 (f1_2 x39 x5)) (?v_182 (f0_2 x26 x38)) (?v_25 (f0_2 x29 x28)) (?v_220 (* 4 (f0_2 x39 (f1_1 x37)))) (?v_82 (f0_2 x32 x20)) (?v_48 (f1_1 x1)) (?v_72 (f0_1 x33)) (?v_42 (f0_2 x21 x15)) (?v_96 (f1_2 x30 x25)) (?v_89 (f1_1 ?v_27)) (?v_19 (f1_2 x39 x15)) (?v_37 (f1_2 x10 x21)) (?v_230 (f1_1 x25)) (?v_98 (f0_1 x12)) (?v_257 (f0_2 x3 x22)) (?v_16 (- (- (* 17 x28) (* 19 x19)) (* 6 x3))) (?v_9 (f1_1 x8)) (?v_102 (f1_2 x39 x3)) (?v_238 (f0_2 x15 x21)) (?v_26 (f0_2 x5 ?v_14)) (?v_47 (f0_1 x2)) (?v_156 (f1_1 x27)) (?v_3 (f1_2 ?v_86 (f1_2 x15 x32))) (?v_240 (f0_2 x11 x8)) (?v_323 (f0_1 x9)) (?v_23 (f1_1 x21)) (?v_81 (f1_1 ?v_70)) (?v_218 (- (+ (* 20 x16) (* 7 x28)) (* 11 x36))) (?v_170 (- (+ (* 17 x10) (* 2 x33)) (* 2 x38))) (?v_5 (f0_2 x33 x7))) (let ((?v_261 (f0_1 ?v_5)) (?v_76 (+ (- (* 25 x14) (* 3 (f1_2 x13 x14))) (* 25 ?v_19))) (?v_137 (+ (- (* 19 x33) (* 18 x20)) (* 2 x10))) (?v_228 (f1_1 ?v_25)) (?v_314 (+ (- (* 28 x16) (* 9 ?v_5)) (* 26 ?v_8))) (?v_287 (f1_1 (f0_1 x38))) (?v_34 (f1_1 (f0_2 x23 x38))) (?v_129 (f1_2 x27 x5)) (?v_95 (- (- (* 9 x28) (* 21 x35)) (* 3 x7))) (?v_17 (f1_2 x37 x27)) (?v_79 (f0_2 x33 x24)) (?v_105 (- (+ (* 16 x19) (* 28 x13)) (* 29 x23))) (?v_97 (- (+ (* 7 ?v_19) (* 5 ?v_42)) (* 8 x9))) (?v_189 (< ?v_72 21)) (?v_144 (< x15 6))) (let ((?v_221 (< ?v_228 8)) (?v_141 (< ?v_26 2)) (?v_18 (< ?v_9 3)) (?v_57 (< (f0_1 ?v_287) 13)) (?v_78 (< ?v_26 10)) (?v_75 (= ?v_17 ?v_95)) (?v_294 (= ?v_3 (f0_1 x30))) (?v_174 (< ?v_89 25)) (?v_364 (< x17 7)) (?v_224 (< x39 8)) (?v_342 (< ?v_38 0)) (?v_158 (< x8 22)) (?v_140 (< ?v_27 23)) (?v_56 (< ?v_9 27)) (?v_12 (< ?v_4 2)) (?v_130 (< ?v_137 1)) (?v_83 (= ?v_23 (f1_1 x24))) (?v_36 (< ?v_25 23)) (?v_93 (= x6 ?v_51)) (?v_204 (< x6 12)) (?v_333 (< x13 24)) (?v_275 (< ?v_98 22)) (?v_393 (< ?v_82 8)) (?v_112 (< ?v_37 7)) (?v_351 (< ?v_38 19)) (?v_289 (< ?v_97 0)) (?v_115 (< (f1_2 x34 x33) 26)) (?v_92 (< ?v_240 19)) (?v_117 (< ?v_261 17)) (?v_273 (< ?v_81 1)) (?v_155 (< ?v_86 26)) (?v_377 (< ?v_34 23)) (?v_65 (< ?v_97 21)) (?v_206 (= ?v_82 ?v_26)) (?v_297 (< ?v_5 24)) (?v_122 (< ?v_218 1)) (?v_159 (= x25 ?v_72)) (?v_198 (= x31 ?v_34)) (?v_262 (< x29 22)) (?v_120 (< ?v_48 19)) (?v_173 (< ?v_89 0)) (?v_113 (< x9 25)) (?v_213 (= (f1_2 x29 x9) x1)) (?v_244 (< ?v_230 1)) (?v_131 (< x7 2)) (?v_214 (< ?v_156 10)) (?v_361 (= (- (+ (* 27 x22) (* 16 x33)) (* 12 x28)) ?v_19)) (?v_233 (< (f0_2 x26 x3) 6)) (?v_179 (= ?v_37 x12)) (?v_320 (< ?v_170 0)) (?v_405 (= ?v_47 x20)) (?v_185 (< ?v_105 5)) (?v_312 (< ?v_314 17)) (?v_197 (< ?v_48 3)) (?v_178 (< ?v_51 24)) (?v_165 (< ?v_137 5)) (?v_291 (= ?v_287 (f1_1 x4))) (?v_123 (< ?v_4 25)) (?v_61 (= ?v_170 ?v_129)) (?v_196 (< ?v_26 0)) (?v_222 (< ?v_304 8)) (?v_391 (< (+ (- (* 10 x10) (* 23 x15)) (* 7 x22)) 16)) (?v_231 (< ?v_4 0))) (let ((?v_110 (not ?v_273)) (?v_1 (not ?v_294)) (?v_344 (not ?v_312)) (?v_310 (not P4)) (?v_229 (not P18)) (?v_245 (not P34)) (?v_13 (not ?v_123)) (?v_15 (not P11)) (?v_91 (not P21)) (?v_46 (not ?v_198)) (?v_21 (not (< ?v_3 2))) (?v_73 (not ?v_113)) (?v_403 (not P17)) (?v_409 (not P30)) (?v_293 (not (< ?v_79 18))) (?v_164 (not ?v_18)) (?v_45 (not P33)) (?v_31 (not (< ?v_16 20))) (?v_152 (not ?v_75)) (?v_187 (not P35)) (?v_410 (not P39)) (?v_207 (not ?v_174)) (?v_41 (not P29)) (?v_43 (not ?v_179)) (?v_77 (not P20)) (?v_328 (not ?v_65)) (?v_251 (not P36)) (?v_385 (not (= ?v_82 ?v_47))) (?v_157 (not P28)) (?v_85 (not P31)) (?v_192 (not P7)) (?v_68 (not P27)) (?v_290 (not ?v_56)) (?v_334 (not ?v_57)) (?v_84 (not P5)) (?v_338 (not ?v_189)) (?v_360 (not P15)) (?v_319 (not ?v_83)) (?v_87 (not ?v_196)) (?v_161 (not ?v_92)) (?v_386 (not ?v_112)) (?v_295 (not ?v_93)) (?v_362 (not P6)) (?v_109 (not P37)) (?v_252 (not ?v_140)) (?v_358 (not ?v_12)) (?v_413 (not ?v_131)) (?v_418 (not P12)) (?v_264 (not ?v_221)) (?v_395 (not ?v_214)) (?v_299 (not ?v_61)) (?v_195 (not ?v_364)) (?v_191 (not P14)) (?v_374 (not ?v_158)) (?v_306 (not ?v_159)) (?v_217 (not ?v_173)) (?v_352 (not ?v_178)) (?v_282 (not P2)) (?v_317 (not P10)) (?v_286 (not ?v_231)) (?v_343 (not ?v_122)) (?v_256 (not (< x12 25))) (?v_367 (not ?v_185)) (?v_237 (not (< ?v_79 28))) (?v_279 (not P24)) (?v_348 (not ?v_222)) (?v_267 (not ?v_165)) (?v_415 (not ?v_204)) (?v_404 (not ?v_120)) (?v_375 (not ?v_393)) (?v_406 (not ?v_275)) (?v_292 (not (= ?v_19 ?v_4))) (?v_331 (not ?v_155)) (?v_371 (not P19)) (?v_326 (not ?v_130)) (?v_392 (not P8)) (?v_381 (not ?v_297)) (?v_373 (not P23)) (?v_372 (not P13)) (?v_368 (not ?v_391)) (?v_394 (not ?v_262)) (?v_390 (not ?v_342)) (?v_387 (not ?v_224)) (?v_378 (not P9)) (?v_384 (not P1)) (?v_401 (not (< ?v_261 2))) (?v_402 (not ?v_289)) (?v_411 (not ?v_361)) (?v_345 (+ (- (* 29 x17) ?v_10) x11))) (let ((?v_22 (f0_2 ?v_230 ?v_345))) (let ((?v_32 (< ?v_22 10))) (let ((?v_60 (not ?v_32)) (?v_69 (+ (- (* 18 ?v_37) ?v_23) (* 17 (f0_1 x24))))) (let ((?v_151 (< ?v_69 23)) (?v_347 (not (< ?v_22 16))) (?v_58 (+ (* 28 x32) (* 16 x5) (* 11 x16)))) (let ((?v_64 (< ?v_58 22)) (?v_101 (< (f1_1 ?v_58) 13)) (?v_103 (< ?v_69 27))) (let ((?v_219 (not ?v_103)) (?v_383 (not ?v_151)) (?v_190 (+ (* 8 x8) (* 3 x3) ?v_160))) (let ((?v_274 (< ?v_190 0))) (let ((?v_296 (not ?v_274)) (?v_366 (= ?v_257 ?v_345))) (let ((?v_376 (not ?v_366)) (?v_108 (< x31 (- 24)))) (let ((?v_172 (not ?v_108)) (?v_169 (not (< ?v_76 (- 3)))) (?v_6 (- (- (* (- 22) x12) (* 6 x37)) (* 14 x24)))) (let ((?v_0 (- (+ (* 16 ?v_6) ?v_220) (* 13 x34)))) (let ((?v_24 (= x27 ?v_0)) (?v_66 (not (= (- (- (* 6 x11) (* 25 x38)) (* 15 x10)) (f0_1 ?v_0)))) (?v_40 (+ (* (- 19) x8) (* 7 x24) (* 9 x37)))) (let ((?v_127 (< ?v_40 19)) (?v_55 (not (< ?v_72 (- 11)))) (?v_249 (< ?v_257 (- 17)))) (let ((?v_7 (not ?v_249)) (?v_369 (< ?v_98 (- 24)))) (let ((?v_121 (not ?v_369)) (?v_183 (+ (- (* (- 19) x9) (* 15 x36)) (* 12 x16)))) (let ((?v_128 (< ?v_183 10))) (let ((?v_2 (not ?v_128)) (?v_11 (< ?v_27 (- 23))) (?v_54 (- (+ (* (- 14) ?v_16) (* 16 x35)) (* 24 x3)))) (let ((?v_175 (< ?v_54 (- 6))) (?v_194 (< ?v_17 (- 2))) (?v_29 (< x34 (- 9))) (?v_63 (= (+ (* (- 29) ?v_47) (* 7 x27) (* 13 (f0_2 x21 x20))) x11)) (?v_142 (< (+ (* (- 14) x24) (* 25 x9) (* 14 x21)) 19))) (let ((?v_203 (not ?v_142)) (?v_269 (< ?v_48 (- 15)))) (let ((?v_346 (not ?v_269)) (?v_99 (< ?v_5 (- 7)))) (let ((?v_311 (not ?v_99)) (?v_80 (< ?v_6 (- 25))) (?v_20 (- (- (* (- 22) x26) (* 23 x13)) (* 5 x21))) (?v_126 (+ (* (- 17) x14) (* 25 x19) (* 3 x33)))) (let ((?v_119 (< ?v_126 (- 24)))) (let ((?v_106 (not ?v_119)) (?v_28 (+ (- (* (- 10) x29) (* 25 x28)) (* 10 x30)))) (let ((?v_35 (= ?v_8 ?v_28)) (?v_149 (< ?v_14 (- 9))) (?v_260 (< ?v_238 (- 14))) (?v_49 (not ?v_11)) (?v_30 (- (+ (* (- 5) x24) (* 7 ?v_51)) (* 6 x39)))) (let ((?v_100 (not (< ?v_30 (- 14)))) (?v_88 (- (+ (* 24 (f0_2 x30 x38)) (* 18 ?v_156)) (* 10 ?v_20)))) (let ((?v_148 (< ?v_88 5)) (?v_315 (< (+ (* (- 28) (f0_2 x23 x23)) (* 27 (+ (* 29 x14) (* 17 x39) (* 4 x27))) (* 23 x31)) 8))) (let ((?v_67 (not ?v_315)) (?v_138 (- (+ (* (- 7) x39) (* 10 x32)) (* 24 x8)))) (let ((?v_33 (< ?v_138 1))) (let ((?v_259 (not ?v_33)) (?v_258 (not ?v_24)) (?v_124 (< ?v_25 (- 8)))) (let ((?v_349 (not ?v_124)) (?v_111 (< ?v_96 (- 7))) (?v_94 (< ?v_26 (- 11)))) (let ((?v_357 (not ?v_94)) (?v_39 (- (- (* (- 6) ?v_28) (* 24 ?v_9)) (* 3 x35)))) (let ((?v_209 (< ?v_39 (- 10))) (?v_363 (not ?v_29)) (?v_143 (< ?v_30 (- 12))) (?v_355 (< x10 (- 20)))) (let ((?v_59 (not ?v_355)) (?v_199 (< ?v_42 (- 19)))) (let ((?v_234 (not ?v_199)) (?v_277 (< x30 (- 6))) (?v_168 (< (- (- (* (- 2) x27) (* 21 x15)) (* 5 x29)) 7)) (?v_116 (= (f1_1 ?v_6) ?v_38)) (?v_50 (< ?v_39 (- 6))) (?v_215 (< x35 (- 8)))) (let ((?v_211 (not ?v_215)) (?v_321 (< ?v_40 6))) (let ((?v_53 (not ?v_321)) (?v_71 (+ (* (- 14) x1) (* 2 (+ (* 20 x2) (* 23 x28) (* 28 x18))) (* 7 x13)))) (let ((?v_44 (< ?v_71 (- 22)))) (let ((?v_298 (not ?v_44)) (?v_177 (< (- (- (* (- 7) x37) (* 9 x8)) (* 18 x22)) (- 18))) (?v_193 (+ (* (- 2) x22) (* 16 x37) (* 20 x20)))) (let ((?v_134 (< ?v_193 27))) (let ((?v_341 (not ?v_134)) (?v_147 (- (- (* (- 6) x17) (* 5 x15)) (* 9 x5)))) (let ((?v_114 (- (+ (* 3 x36) (* 6 x20)) (* 12 ?v_147)))) (let ((?v_52 (< ?v_114 24)) (?v_153 (< ?v_8 (- 23)))) (let ((?v_200 (not ?v_52)) (?v_90 (= x4 ?v_30)) (?v_163 (< ?v_54 (- 5)))) (let ((?v_354 (not ?v_163)) (?v_62 (< (f1_1 x13) (- 15)))) (let ((?v_278 (not ?v_62)) (?v_74 (< x4 (- 28)))) (let ((?v_380 (not ?v_74)) (?v_132 (not ?v_63)) (?v_146 (= ?v_70 ?v_71)) (?v_225 (< ?v_76 (- 11))) (?v_104 (- (- (* (- 9) x18) (* 25 x34)) ?v_160))) (let ((?v_210 (- (+ (* 29 x26) (* 15 ?v_104)) (* 17 x20)))) (let ((?v_248 (< ?v_210 (- 22))) (?v_242 (< ?v_79 (- 19))) (?v_226 (not ?v_80)) (?v_288 (< ?v_81 (- 11)))) (let ((?v_186 (not ?v_288)) (?v_136 (< ?v_16 (- 26))) (?v_176 (< ?v_3 (- 12))) (?v_133 (= ?v_88 x6)) (?v_107 (< ?v_102 (- 1))) (?v_166 (< ?v_79 (- 21))) (?v_188 (< ?v_82 (- 19))) (?v_135 (< ?v_95 (- 13)))) (let ((?v_216 (not ?v_135)) (?v_232 (< ?v_323 (- 13)))) (let ((?v_171 (not ?v_232)) (?v_167 (< (f0_2 x9 x33) (- 12))) (?v_272 (< ?v_102 (- 24)))) (let ((?v_316 (not ?v_272)) (?v_266 (< ?v_182 (- 19))) (?v_227 (not ?v_111)) (?v_253 (< ?v_39 13)) (?v_212 (< x17 (- 5)))) (let ((?v_205 (not ?v_212)) (?v_125 (< x28 (- 5))) (?v_118 (< ?v_114 9))) (let ((?v_236 (not ?v_118)) (?v_150 (< (- (- (* (- 10) x14) (* 3 x18)) (* 20 x34)) 19)) (?v_407 (not ?v_90)) (?v_416 (not ?v_125)) (?v_201 (< x20 (- 27)))) (let ((?v_181 (not ?v_201)) (?v_327 (< ?v_126 10))) (let ((?v_300 (not ?v_327)) (?v_239 (not ?v_127)) (?v_184 (< ?v_129 (- 9)))) (let ((?v_139 (not ?v_184)) (?v_398 (< x17 (- 13)))) (let ((?v_330 (not ?v_398)) (?v_145 (= (- (- (* (- 1) x32) (* 18 x21)) (* 14 x34)) (f1_1 x32)))) (let ((?v_154 (not ?v_145)) (?v_336 (not ?v_133)) (?v_379 (not ?v_136)) (?v_263 (< ?v_138 (- 23))) (?v_223 (< ?v_48 (- 1))) (?v_271 (not ?v_143)) (?v_246 (< x39 (- 29))) (?v_400 (< ?v_147 7))) (let ((?v_303 (not ?v_400)) (?v_162 (< ?v_104 (- 26))) (?v_356 (not ?v_149)) (?v_332 (+ (- (* (- 16) x24) (* 28 x34)) (* 22 x30)))) (let ((?v_283 (< ?v_332 2)) (?v_180 (< ?v_190 (- 23))) (?v_337 (not ?v_50)) (?v_243 (< ?v_104 (- 28))) (?v_284 (not ?v_167)) (?v_250 (not ?v_148)) (?v_208 (= ?v_88 ?v_47))) (let ((?v_270 (not ?v_180)) (?v_255 (= ?v_182 ?v_183)) (?v_370 (< ?v_126 (- 21))) (?v_241 (< ?v_193 15)) (?v_202 (< x30 (- 11))) (?v_412 (not ?v_209)) (?v_318 (< (- (+ (* 27 ?v_156) (* 9 ?v_27)) (* 11 x25)) (- 28)))) (let ((?v_247 (not ?v_318)) (?v_322 (not (< ?v_210 (- 1)))) (?v_399 (< (- (+ (* (- 2) ?v_6) ?v_220) (* 15 x0)) 10)) (?v_235 (= ?v_0 ?v_28)) (?v_359 (< ?v_228 (- 9)))) (let ((?v_302 (not ?v_359)) (?v_325 (< ?v_30 (- 10)))) (let ((?v_339 (not ?v_325)) (?v_254 (not ?v_235)) (?v_285 (not (< ?v_238 (- 19)))) (?v_388 (not (< ?v_240 (- 27)))) (?v_280 (not ?v_107)) (?v_309 (not ?v_242)) (?v_308 (< (- (+ (* 13 x27) (* 6 x1)) (* 23 x18)) (- 12))) (?v_305 (not ?v_248)) (?v_276 (< ?v_20 5)) (?v_313 (not ?v_255)) (?v_329 (+ (- (* (- 2) x25) (* 2 x4)) (* 13 x13)))) (let ((?v_281 (= ?v_257 ?v_329)) (?v_417 (not ?v_260)) (?v_268 (< (+ (* (- 14) x31) (* 18 x2) (* 7 x14)) (- 3)))) (let ((?v_265 (not ?v_268)) (?v_301 (not (< ?v_261 (- 6)))) (?v_324 (not ?v_266)) (?v_382 (not ?v_153)) (?v_396 (< ?v_16 (- 28)))) (let ((?v_414 (not ?v_396)) (?v_365 (< ?v_304 (- 16))) (?v_335 (< ?v_314 (- 24))) (?v_397 (not ?v_194)) (?v_353 (not (< ?v_323 (- 9)))) (?v_340 (< ?v_329 (- 4))) (?v_350 (not (< ?v_332 (- 15)))) (?v_389 (< ?v_81 (- 15)))) (let ((?v_408 (not ?v_335))) (and (and (and (and (and (and (and (and (and (and (and (and (and (and (and (and (and (and (and (and (and (and (and (and (and (and (and (and (and (and (and (and (and (and (and (and (and (and (and (and (and (and (and (and (and (and (and (and (and (and (and (and (and (and (and (and (and (and (and (and (and (and (and (and (and (and (and (and (and (and (and (and (and (and (and (and (and (and (and (and (and (and (and (and (and (and (and (and (and (and (and (and (and (and (and (and (and (and (and (and (and (and (and (and (and (and (and (and (and (and (and (and (and (and (and (and (and (and (and (and (and (and (and (and (and (and (and (and (and (and (and (and (and (and (and (and (and (and (and (and (and (and (and (and (and (and (and (and (and (and (and (and (and (and (and (and (and (and (and (and (and (and (and (and (and (and (and (and (and (and (and (and (and (and (and (and (and (and (and (and (and (and (and (and (and (and (and (and (and (and (and (and (and (and (and (and (and (and (and (and (and (and (and (and (and (and (and (and (and (and (and (and (and (and (and (and (and (and (and (and (and (and (and (and (and (and (and (and (and (and (and (and (and (and (and (and (and (and (and (and (and (and (and (and (and (and (and (and (and (and (and (and (and (and (and (and (and (and (and (and (and (and (and (and (and (and (and (and (and (and (and (and (and (and (and (and (and (and (and (and (and (and (and (and (and (and (and (and (and (and (and (and (and (and (and (and (and (and (and (and (and (and (and (and (and (and (and (and (and (and (and (and (and (and (and (and (and (and (and (and (and (and (and (and (and (and (and (and (and (and (and (and (and (and (and (and (and (and (and (and (and (and (and (and (and (and (and (and (and (and (and (and (and (and (and (and (and (and (and (and (and (and (and (and (and (and (and (and (and (and (and (and (and (and (and (and (and (and (and (and (and (and (and (and (and (and (and (and (and (and (and (and (and (and (and (and (and (and (and (or (or ?v_172 ?v_110) ?v_1) (or (or ?v_169 ?v_344) ?v_24)) (or (or ?v_310 ?v_229) ?v_66)) (or (or ?v_127 ?v_55) ?v_7)) (or (or P37 ?v_121) ?v_2)) (or (or P39 ?v_245) ?v_13)) (or (or ?v_15 ?v_60) ?v_91)) (or (or ?v_1 ?v_46) ?v_11)) (or (or ?v_2 ?v_21) (not ?v_175))) (or (or ?v_12 ?v_194) ?v_151)) (or (or ?v_29 ?v_63) ?v_73)) (or (or ?v_203 ?v_56) ?v_346)) (or (or ?v_311 ?v_403) P16)) (or (or ?v_80 (< ?v_20 (- 26))) ?v_7)) (or (or ?v_106 ?v_409) ?v_293)) (or (or ?v_35 ?v_164) ?v_130)) (or (or ?v_45 ?v_149) ?v_342)) (or (or ?v_36 ?v_260) P20)) (or (or ?v_49 ?v_12) ?v_13)) (or (or ?v_78 ?v_15) ?v_100)) (or (or ?v_31 ?v_122) ?v_152)) (or (or ?v_18 ?v_187) ?v_185)) (or (or ?v_361 ?v_148) ?v_21)) (or (or ?v_347 ?v_410) ?v_233)) (or (or ?v_67 ?v_83) P8)) (or (or ?v_259 ?v_258) ?v_349)) (or (or ?v_111 ?v_357) ?v_207)) (or (or ?v_209 ?v_61) ?v_363)) (or (or ?v_143 ?v_31) ?v_32)) (or (or (not P0) ?v_33) ?v_59)) (or (or ?v_57 ?v_377) (not ?v_35))) (or (or ?v_234 ?v_41) P34)) (or (or (not ?v_277) ?v_36) ?v_168)) (or (or ?v_43 ?v_116) ?v_50)) (or (or ?v_211 ?v_53) ?v_77)) (or (or ?v_64 P1) ?v_44)) (or (or ?v_41 ?v_328) ?v_43)) (or (or ?v_298 ?v_177) ?v_251)) (or (or ?v_45 ?v_46) ?v_385)) (or (or ?v_262 ?v_341) ?v_21)) (or (or ?v_52 ?v_157) ?v_153)) (or (or ?v_120 ?v_49) ?v_50)) (or (or ?v_93 ?v_200) ?v_85)) (or (or P30 ?v_192) ?v_53)) (or (or ?v_90 ?v_354) ?v_55)) (or (or ?v_68 ?v_290) ?v_334)) (or (or ?v_278 ?v_101) ?v_59)) (or (or ?v_84 ?v_60) (not ?v_117))) (or (or P27 (not ?v_197)) ?v_61)) (or (or ?v_62 ?v_380) ?v_132)) (or (or ?v_64 P15) ?v_65)) (or (or ?v_213 ?v_66) ?v_67)) (or (or ?v_68 ?v_103) ?v_7)) (or (or ?v_146 ?v_338) ?v_73)) (or (or ?v_360 ?v_74) ?v_75)) (or (or ?v_225 ?v_248) ?v_77)) (or (or P32 P13) ?v_78)) (or (or ?v_242 P32) ?v_74)) (or (or P31 (not P26)) ?v_226)) (or (or ?v_186 (not ?v_206)) ?v_44)) (or (or ?v_319 ?v_224) ?v_87)) (or (or ?v_84 ?v_85) ?v_115)) (or (or ?v_155 P39) ?v_136)) (or (or ?v_176 ?v_161) ?v_204)) (or (or ?v_87 ?v_133) ?v_107)) (or (or ?v_173 P10) ?v_386)) (or (or ?v_90 ?v_91) ?v_92)) (or (or ?v_166 ?v_57) ?v_295)) (or (or ?v_90 ?v_144) ?v_188)) (or (or ?v_94 ?v_216) (not (< ?v_96 7)))) (or (or P21 ?v_21) ?v_171)) (or (or ?v_141 ?v_289) ?v_275)) (or (or ?v_99 ?v_100) ?v_91)) (or (or ?v_167 ?v_362) ?v_101)) (or (or ?v_316 ?v_109) ?v_219)) (or (or (not (= ?v_104 ?v_105)) P11) ?v_24)) (or (or ?v_103 ?v_106) ?v_107)) (or (or ?v_266 ?v_108) ?v_109)) (or (or ?v_110 (< (+ (- (* 7 x18) (* 24 x21)) x0) 25)) ?v_227)) (or (or ?v_178 ?v_112) P0)) (or (or P1 ?v_253) ?v_113)) (or (or ?v_205 ?v_125) ?v_236)) (or (or ?v_67 ?v_115) ?v_116)) (or (or P23 ?v_150) ?v_117)) (or (or ?v_118 P17) ?v_119)) (or (or ?v_57 ?v_120) ?v_121)) (or (or ?v_122 ?v_407) ?v_131)) (or (or P6 ?v_123) ?v_124)) (or (or ?v_158 ?v_416) ?v_181)) (or (or ?v_159 ?v_300) ?v_252)) (or (or ?v_239 ?v_128) ?v_18)) (or (or ?v_139 P23) ?v_100)) (or (or ?v_330 ?v_358) ?v_130)) (or (or ?v_154 ?v_413) ?v_132)) (or (or ?v_55 ?v_77) ?v_418)) (or (or ?v_264 ?v_336) ?v_134)) (or (or ?v_63 ?v_135) ?v_379)) (or (or ?v_165 ?v_85) ?v_263)) (or (or ?v_139 P10) (not ?v_223))) (or (or ?v_53 ?v_140) ?v_141)) (or (or ?v_142 ?v_271) (not ?v_144))) (or (or ?v_145 ?v_146) ?v_132)) (or (or ?v_246 P23) ?v_303)) (or (or ?v_162 ?v_12) ?v_107)) (or (or ?v_148 ?v_356) ?v_150)) (or (or ?v_383 ?v_222) ?v_152)) (or (or ?v_153 ?v_150) ?v_154)) (or (or ?v_155 ?v_395) P13)) (or (or ?v_113 ?v_139) ?v_141)) (or (or P10 P19) ?v_299)) (or (or ?v_157 ?v_195) ?v_191)) (or (or ?v_283 ?v_149) ?v_374)) (or (or ?v_306 ?v_180) ?v_161)) (or (or ?v_337 ?v_144) ?v_32)) (or (or P24 ?v_162) ?v_163)) (or (or ?v_243 ?v_164) ?v_165)) (or (or ?v_166 P27) ?v_284)) (or (or ?v_168 ?v_250) ?v_169)) (or (or ?v_83 ?v_24) ?v_320)) (or (or ?v_148 ?v_171) ?v_172)) (or (or ?v_217 ?v_174) ?v_175)) (or (or ?v_208 ?v_176) ?v_177)) (or (or ?v_154 ?v_352) ?v_179)) (or (or ?v_270 ?v_181) ?v_255)) (or (or ?v_184 ?v_185) ?v_186)) (or (or ?v_187 ?v_36) ?v_188)) (or (or ?v_189 ?v_274) (not ?v_370))) (or (or ?v_191 ?v_282) ?v_192)) (or (or ?v_94 ?v_113) ?v_62)) (or (or ?v_241 ?v_317) ?v_113)) (or (or ?v_286 ?v_44) ?v_124)) (or (or ?v_161 ?v_194) ?v_297)) (or (or ?v_195 ?v_196) ?v_197)) (or (or ?v_198 ?v_199) ?v_200)) (or (or ?v_174 ?v_201) ?v_62)) (or (or (not ?v_202) ?v_202) ?v_203)) (or (or ?v_204 ?v_205) ?v_203)) (or (or ?v_192 P32) ?v_206)) (or (or ?v_207 ?v_208) ?v_127)) (or (or ?v_412 ?v_113) ?v_199)) (or (or ?v_247 ?v_132) ?v_322)) (or (or P11 ?v_211) ?v_136)) (or (or ?v_208 ?v_212) ?v_213)) (or (or ?v_93 ?v_12) ?v_214)) (or (or ?v_131 ?v_215) ?v_343)) (or (or (not ?v_78) (not ?v_176)) ?v_15)) (or (or ?v_216 ?v_217) ?v_209)) (or (or ?v_256 ?v_73) ?v_84)) (or (or ?v_214 (not (= ?v_218 ?v_104))) P11)) (or (or ?v_219 (not ?v_399)) ?v_221)) (or (or ?v_139 ?v_196) ?v_167)) (or (or ?v_222 ?v_11) ?v_223)) (or (or ?v_224 ?v_225) ?v_235)) (or (or ?v_226 ?v_227) ?v_302)) (or (or ?v_339 ?v_103) ?v_229)) (or (or ?v_214 ?v_367) ?v_178)) (or (or ?v_77 ?v_166) (not ?v_177))) (or (or ?v_184 ?v_13) ?v_2)) (or (or ?v_244 ?v_231) ?v_237)) (or (or ?v_232 P4) ?v_12)) (or (or ?v_108 ?v_145) P22)) (or (or ?v_233 ?v_279) ?v_234)) (or (or ?v_135 ?v_206) ?v_226)) (or (or ?v_92 P7) ?v_214)) (or (or ?v_21 (not ?v_188)) ?v_254)) (or (or ?v_36 ?v_236) P24)) (or (or ?v_237 ?v_285) ?v_176)) (or (or ?v_50 ?v_239) ?v_388)) (or (or ?v_149 ?v_53) ?v_280)) (or (or ?v_241 ?v_225) ?v_348)) (or (or (not (< x16 (- 23))) ?v_124) ?v_180)) (or (or ?v_55 ?v_309) ?v_87)) (or (or P32 ?v_173) (not ?v_333))) (or (or ?v_148 ?v_308) ?v_221)) (or (or (not ?v_243) ?v_244) ?v_130)) (or (or ?v_204 ?v_245) ?v_246)) (or (or ?v_247 ?v_140) P13)) (or (or ?v_234 ?v_36) ?v_49)) (or (or ?v_305 ?v_43) ?v_74)) (or (or P22 ?v_162) ?v_154)) (or (or ?v_267 ?v_249) ?v_276)) (or (or ?v_250 ?v_110) ?v_251)) (or (or ?v_113 ?v_185) ?v_252)) (or (or ?v_87 P32) ?v_351)) (or (or P27 ?v_253) ?v_254)) (or (or P39 ?v_313) ?v_127)) (or (or ?v_108 ?v_107) ?v_256)) (or (or ?v_59 ?v_281) ?v_123)) (or (or ?v_258 ?v_223) ?v_259)) (or (or ?v_417 (not ?v_166)) ?v_222)) (or (or ?v_62 (not P32)) ?v_265)) (or (or ?v_301 ?v_143) P26)) (or (or ?v_254 ?v_188) ?v_139)) (or (or ?v_415 P9) ?v_99)) (or (or ?v_172 ?v_262) ?v_208)) (or (or ?v_404 ?v_94) (not ?v_263))) (or (or ?v_264 ?v_146) ?v_265)) (or (or ?v_164 ?v_259) ?v_324)) (or (or ?v_211 P23) ?v_267)) (or (or ?v_268 ?v_258) ?v_255)) (or (or P27 ?v_150) ?v_77)) (or (or ?v_56 ?v_78) ?v_164)) (or (or ?v_269 ?v_59) ?v_74)) (or (or ?v_151 ?v_253) P33)) (or (or ?v_270 ?v_271) ?v_272)) (or (or ?v_375 ?v_273) ?v_33)) (or (or P24 ?v_145) ?v_169)) (or (or ?v_296 ?v_275) ?v_12)) (or (or ?v_205 ?v_85) ?v_406)) (or (or ?v_13 ?v_292) ?v_276)) (or (or ?v_121 ?v_64) ?v_277)) (or (or ?v_153 ?v_274) ?v_331)) (or (or ?v_192 ?v_278) P15)) (or (or ?v_279 ?v_280) P9)) (or (or P6 (not ?v_281)) ?v_282)) (or (or (not ?v_283) ?v_284) ?v_163)) (or (or ?v_187 ?v_61) ?v_371)) (or (or ?v_64 ?v_326) ?v_176)) (or (or ?v_285 (not (< (+ (- (* 13 x25) (* 24 (f0_1 ?v_307))) (* 12 x30)) 15))) ?v_112)) (or (or ?v_256 ?v_286) ?v_241)) (or (or ?v_382 P37) ?v_108)) (or (or (not ?v_291) ?v_202) P8)) (or (or ?v_55 ?v_109) ?v_33)) (or (or (not (< (f1_1 x26) (- 12))) ?v_288) ?v_78)) (or (or P14 ?v_198) ?v_289)) (or (or ?v_290 ?v_75) ?v_291)) (or (or ?v_392 ?v_292) ?v_124)) (or (or P30 ?v_293) ?v_128)) (or (or ?v_294 ?v_295) ?v_296)) (or (or ?v_414 ?v_149) ?v_263)) (or (or ?v_142 ?v_179) ?v_162)) (or (or ?v_45 ?v_381) ?v_143)) (or (or ?v_274 ?v_298) ?v_195)) (or (or ?v_299 ?v_146) P16)) (or (or ?v_7 (not ?v_225)) ?v_300)) (or (or ?v_77 ?v_301) ?v_272)) (or (or ?v_302 ?v_303) ?v_55)) (or (or ?v_56 ?v_259) ?v_365)) (or (or ?v_258 ?v_225) ?v_53)) (or (or ?v_305 ?v_306) ?v_260)) (or (or P23 (= (f0_2 x2 x0) ?v_307)) ?v_118)) (or (or P9 ?v_207) ?v_308)) (or (or ?v_260 ?v_309) ?v_310)) (or (or ?v_132 ?v_99) ?v_205)) (or (or ?v_311 ?v_312) ?v_21)) (or (or ?v_251 ?v_373) ?v_121)) (or (or ?v_237 P20) ?v_313)) (or (or ?v_311 ?v_335) ?v_315)) (or (or (not ?v_168) ?v_300) ?v_31)) (or (or ?v_174 (not ?v_253)) ?v_397)) (or (or ?v_256 ?v_140) ?v_56)) (or (or ?v_13 ?v_316) ?v_315)) (or (or ?v_317 ?v_241) ?v_318)) (or (or P36 ?v_292) ?v_319)) (or (or (not ?v_320) ?v_278) ?v_372)) (or (or ?v_13 ?v_214) ?v_321)) (or (or ?v_251 P33) P13)) (or (or ?v_322 ?v_219) ?v_321)) (or (or ?v_268 ?v_267) ?v_159)) (or (or ?v_199 ?v_269) ?v_35)) (or (or ?v_353 ?v_185) ?v_324)) (or (or ?v_325 ?v_326) ?v_368)) (or (or ?v_222 ?v_327) ?v_150)) (or (or ?v_328 ?v_394) ?v_177)) (or (or ?v_150 ?v_340) ?v_303)) (or (or ?v_330 P30) ?v_253)) (or (or ?v_247 ?v_331) ?v_350)) (or (or P7 ?v_333) ?v_67)) (or (or ?v_334 ?v_335) ?v_1)) (or (or P39 ?v_336) ?v_248)) (or (or ?v_233 ?v_337) ?v_191)) (or (or ?v_338 ?v_163) ?v_339)) (or (or ?v_237 (not P3)) ?v_87)) (or (or ?v_143 ?v_118) ?v_305)) (or (or ?v_78 P31) ?v_24)) (or (or ?v_122 (not ?v_340)) ?v_341)) (or (or (not ?v_308) ?v_390) ?v_168)) (or (or ?v_118 ?v_343) ?v_184)) (or (or ?v_271 (not ?v_241)) ?v_13)) (or (or P13 ?v_234) ?v_222)) (or (or ?v_204 ?v_242) ?v_168)) (or (or ?v_283 ?v_344) ?v_366)) (or (or ?v_163 ?v_387) P31)) (or (or ?v_188 ?v_346) P24)) (or (or ?v_101 ?v_99) ?v_211)) (or (or ?v_347 ?v_112) ?v_122)) (or (or ?v_155 ?v_13) ?v_271)) (or (or ?v_250 ?v_348) ?v_239)) (or (or ?v_349 ?v_350) (not ?v_351))) (or (or ?v_94 ?v_35) ?v_352)) (or (or ?v_219 ?v_62) ?v_353)) (or (or ?v_134 ?v_13) ?v_167)) (or (or ?v_93 P9) ?v_354)) (or (or ?v_189 ?v_109) ?v_355)) (or (or ?v_207 ?v_356) ?v_266)) (or (or ?v_139 ?v_146) ?v_178)) (or (or ?v_221 ?v_357) P21)) (or (or ?v_163 ?v_306) ?v_229)) (or (or ?v_319 ?v_41) ?v_309)) (or (or P36 ?v_203) P11)) (or (or ?v_243 ?v_358) ?v_181)) (or (or ?v_195 ?v_359) ?v_360)) (or (or ?v_361 ?v_362) ?v_65)) (or (or ?v_253 ?v_207) ?v_363)) (or (or ?v_288 ?v_244) P26)) (or (or ?v_364 ?v_84) ?v_365)) (or (or ?v_258 ?v_366) ?v_63)) (or (or ?v_154 ?v_84) ?v_367)) (or (or ?v_368 ?v_338) ?v_369)) (or (or ?v_199 ?v_186) ?v_370)) (or (or ?v_317 ?v_203) ?v_158)) (or (or ?v_55 ?v_371) ?v_116)) (or (or (not ?v_116) ?v_334) ?v_372)) (or (or ?v_271 ?v_84) ?v_227)) (or (or ?v_373 ?v_325) ?v_136)) (or (or ?v_374 (not ?v_405)) ?v_179)) (or (or ?v_113 ?v_334) ?v_313)) (or (or P14 ?v_217) ?v_209)) (or (or P32 ?v_315) P4)) (or (or ?v_376 ?v_263) ?v_270)) (or (or ?v_281 ?v_267) ?v_296)) (or (or ?v_375 ?v_376) ?v_311)) (or (or ?v_378 ?v_384) ?v_324)) (or (or ?v_377 ?v_209) ?v_352)) (or (or ?v_378 ?v_379) ?v_295)) (or (or ?v_380 ?v_1) ?v_130)) (or (or ?v_84 ?v_359) ?v_372)) (or (or ?v_316 P27) P32)) (or (or ?v_123 P8) P23)) (or (or ?v_381 P21) (not P16))) (or (or ?v_259 ?v_7) ?v_382)) (or (or ?v_383 P31) ?v_377)) (or (or ?v_65 ?v_57) ?v_176)) (or (or ?v_254 ?v_384) ?v_275)) (or (or ?v_256 P24) (not ?v_162))) (or (or ?v_253 ?v_385) ?v_12)) (or (or ?v_355 ?v_253) ?v_382)) (or (or ?v_369 ?v_350) ?v_202)) (or (or ?v_389 ?v_161) ?v_214)) (or (or ?v_174 ?v_386) P28)) (or (or P2 ?v_387) ?v_195)) (or (or ?v_21 ?v_100) ?v_360)) (or (or ?v_342 ?v_313) ?v_337)) (or (or ?v_109 ?v_343) ?v_41)) (or (or ?v_294 ?v_373) P6)) (or (or ?v_408 ?v_388) ?v_389)) (or (or ?v_222 ?v_110) ?v_390)) (or (or ?v_363 ?v_379) P25)) (or (or ?v_152 ?v_353) ?v_171)) (or (or ?v_311 ?v_191) ?v_120)) (or (or ?v_391 ?v_392) ?v_107)) (or (or ?v_18 ?v_334) ?v_373)) (or (or ?v_393 ?v_320) ?v_143)) (or (or ?v_195 ?v_191) ?v_175)) (or (or ?v_394 ?v_356) (not ?v_246))) (or (or ?v_153 ?v_203) ?v_84)) (or (or ?v_318 P2) ?v_205)) (or (or ?v_271 ?v_244) ?v_395)) (or (or ?v_294 ?v_294) ?v_298)) (or (or ?v_396 ?v_225) ?v_272)) (or (or ?v_305 ?v_178) ?v_349)) (or (or ?v_171 ?v_397) ?v_401)) (or (or ?v_398 ?v_399) ?v_400)) (or (or ?v_80 ?v_87) ?v_259)) (or (or ?v_401 ?v_1) P23)) (or (or ?v_224 P18) ?v_252)) (or (or ?v_402 ?v_256) ?v_355)) (or (or ?v_227 ?v_402) ?v_396)) (or (or ?v_398 ?v_85) ?v_337)) (or (or P5 ?v_357) ?v_305)) (or (or ?v_59 ?v_289) ?v_198)) (or (or ?v_113 ?v_250) ?v_403)) (or (or ?v_404 ?v_327) ?v_390)) (or (or ?v_275 ?v_344) ?v_405)) (or (or ?v_406 ?v_267) ?v_407)) (or (or ?v_221 ?v_117) ?v_172)) (or (or P4 ?v_381) ?v_191)) (or (or ?v_192 ?v_408) ?v_203)) (or (or ?v_409 ?v_411) ?v_300)) (or (or P14 ?v_77) (not ?v_208))) (or (or ?v_402 P29) P24)) (or (or ?v_141 ?v_410) ?v_152)) (or (or ?v_84 ?v_99) ?v_395)) (or (or ?v_31 ?v_192) ?v_306)) (or (or (not ?v_141) P38) ?v_73)) (or (or ?v_324 ?v_119) ?v_364)) (or (or ?v_258 P8) ?v_387)) (or (or ?v_281 ?v_395) (not (< ?v_190 (- 8))))) (or (or ?v_411 ?v_264) ?v_201)) (or (or P23 ?v_93) ?v_412)) (or (or ?v_73 ?v_336) ?v_413)) (or (or ?v_168 (not ?v_244)) ?v_269)) (or (or ?v_273 ?v_216) P1)) (or (or ?v_356 ?v_414) ?v_415)) (or (or ?v_94 ?v_325) ?v_146)) (or (or ?v_270 ?v_119) ?v_108)) (or (or ?v_392 ?v_416) ?v_348)) (or (or ?v_221 ?v_245) (not ?v_276))) (or (or ?v_308 ?v_417) ?v_246)) (or (or P14 ?v_269) ?v_418)))))))))))))))))))))))))))))))))))))))))))))))))))))))))))))))))))))))))))))
(check-sat)
(exit)
